Total weight: 1286.630992004266
Route 1: 0 53 40 54 55 25 0 
Route 2: 0 88 82 8 86 14 100 93 99 0 
Route 3: 0 26 24 29 34 9 20 32 90 63 10 0 
Route 4: 0 4 39 23 67 38 17 60 0 
Route 5: 0 52 31 30 51 81 33 0 
Route 6: 0 27 69 1 50 28 0 
Route 7: 0 92 42 43 15 57 2 13 58 0 
Route 8: 0 83 45 36 49 19 47 46 48 7 0 
Route 9: 0 62 64 11 18 6 0 
Route 10: 0 35 71 65 66 70 0 
Route 11: 0 94 95 97 87 41 22 75 56 74 72 73 21 0 
Route 12: 0 76 77 3 79 78 68 80 12 0 
Route 13: 0 89 96 85 91 44 16 61 84 5 98 37 59 0 
